# Solution for model GasLib-40
# Objective value = 7.0219916104345543e+01
loadshed[innode_1] 0
loadshed[innode_2] 0
loadshed[innode_3] 0
loadshed[innode_4] 0
loadshed[innode_5] 0
loadshed[innode_6] 0
loadshed[innode_7] 0
loadshed[innode_8] 0
loadshed[source_1] -6.8021093022826218e-02
loadshed[source_2] 2.5150368485501073e-01
loadshed[source_3] 2.6069346435165652e-01
loadshed[sink_1] 1
loadshed[sink_2] 0
loadshed[sink_3] 0
loadshed[sink_4] 0
loadshed[sink_5] 0
loadshed[sink_6] 0
loadshed[sink_7] 0
loadshed[sink_8] 0
loadshed[sink_9] 0
loadshed[sink_10] 0
loadshed[sink_11] 0
loadshed[sink_12] 1
loadshed[sink_13] 0
loadshed[sink_14] 0
loadshed[sink_15] 0
loadshed[sink_16] 0
loadshed[sink_17] 0
loadshed[sink_18] 0
loadshed[sink_19] 0
loadshed[sink_20] 0
loadshed[sink_21] 1
loadshed[sink_22] 3.2150474959569519e-01
loadshed[sink_23] 0
loadshed[sink_24] 9.7219712684836335e-01
loadshed[sink_25] 0
loadshed[sink_26] 0
loadshed[sink_27] 0
loadshed[sink_28] 0
loadshed[sink_29] 0
flow[source_1,sink_3] 1.6884375126850443e+02
flow[innode_1,sink_16] 1.6354166666666970e+01
flow[innode_6,sink_13] -2.3980089169065764e+00
flow[sink_13,sink_14] -1.8752175583573244e+01
flow[sink_14,sink_10] -3.5106342250239948e+01
flow[sink_25,sink_26] 0
flow[sink_26,sink_9] 4.7870723204155688e+01
flow[sink_9,sink_18] 3.1516556537489020e+01
flow[sink_26,sink_4] -6.4224889870822381e+01
flow[sink_4,sink_20] 0
flow[sink_18,sink_6] 1.5162389870822352e+01
flow[sink_25,innode_8] -1.3613541793516811e+02
flow[sink_6,sink_7] -1.2288001203498027e+01
flow[sink_6,sink_22] 1.1096224407653736e+01
flow[sink_7,sink_24] 0.454692821334056
flow[sink_22,sink_1] 0
flow[sink_24,sink_21] 0
flow[sink_21,sink_12] 0
flow[sink_7,sink_5] -2.9096860691498758e+01
flow[sink_5,sink_17] -4.5451027358165447e+01
flow[sink_17,sink_4] 8.0579056537489052e+01
flow[sink_17,sink_8] -1.4238425056232106e+02
flow[sink_3,sink_23] 16.3541666666697
flow[sink_8,sink_20] -1.5873841722898771e+02
flow[sink_25,sink_20] 1.7509258389565454e+02
flow[sink_25,sink_15] -5.2913323710246573e+01
flow[sink_15,sink_29] 0
flow[sink_29,sink_28] 1.6354166666667879e+01
flow[sink_29,sink_2] 8.5621657043579916e+01
flow[sink_2,sink_15] 6.9267490376913244e+01
flow[sink_29,innode_7] -1.1832999037691445e+02
flow[innode_4,sink_19] 4.5210282140158142e+01
flow[sink_19,innode_3] 4.1074039741627075e+01
flow[innode_4,innode_5] 71.666893443415
flow[sink_27,innode_5] -71.666893443415
flow[sink_27,sink_19] 5.5312726776748377e+01
flow[sink_10,sink_11] 3.2708333333333641e+01
flow[sink_10,innode_2] -43.0948025086131
flow[sink_10,innode_3] -4.1074039741627075e+01
flow[innode_6,sink_25] 2.3980089169065764e+00
flow[sink_11,innode_1] 1.6354166666666970e+01
flow[sink_19,innode_2] 43.0948025086131
flow[source_3,innode_4] 1.1687717558357319e+02
flow[source_2,innode_7] 1.1832999037691445e+02
flow[sink_3,innode_8] 1.3613541793516811e+02
pressure[innode_1] 7.6752226666499340e+01
pressure[innode_2] 7.9181666274046734e+01
pressure[innode_3] 7.9090712464169343e+01
pressure[innode_4] 81.01325
pressure[innode_5] 8.0963953731682622e+01
pressure[innode_6] 7.5196668842143225e+01
pressure[innode_7] 81.01325
pressure[innode_8] 8.0448869840160270e+01
pressure[source_1] 81.01325
pressure[source_2] 81.01325
pressure[source_3] 81.01325
pressure[sink_1] 1.0132500000000002e+00
pressure[sink_2] 7.5679493111807517e+01
pressure[sink_3] 8.0448869840160270e+01
pressure[sink_4] 1.3941303393636350e+01
pressure[sink_5] 1.3634996224551951e+01
pressure[sink_6] 1.3651544343820590e+00
pressure[sink_7] 1.5338394007443221e+00
pressure[sink_8] 2.2393296912176691e+01
pressure[sink_9] 2.9103983393203148e+00
pressure[sink_10] 7.6903927974102885e+01
pressure[sink_11] 7.6752226666499340e+01
pressure[sink_12] 1.01325
pressure[sink_13] 7.5209888664557624e+01
pressure[sink_14] 7.5243447280096589e+01
pressure[sink_15] 7.5453350022035877e+01
pressure[sink_16] 7.5730576831681660e+01
pressure[sink_17] 1.7020769233273437e+01
pressure[sink_18] 1.7700353883003848e+00
pressure[sink_19] 7.9181666274046734e+01
pressure[sink_20] 3.3455132211650927e+01
pressure[sink_21] 1.01325
pressure[sink_22] 1.0132500000000002e+00
pressure[sink_23] 8.0284151828500484e+01
pressure[sink_24] 1.01325
pressure[sink_25] 7.5196668842143225e+01
pressure[sink_26] 5.7755846740245946e+00
pressure[sink_27] 8.0369250942282363e+01
pressure[sink_28] 7.7553104041005085e+01
pressure[sink_29] 7.7848386314622260e+01
interdiction[source_1,sink_3] 0
interdiction[innode_1,sink_16] 0
interdiction[innode_6,sink_13] 0
interdiction[sink_13,sink_14] 0
interdiction[sink_14,sink_10] 0
interdiction[sink_25,sink_26] 1
interdiction[sink_26,sink_9] 0
interdiction[sink_9,sink_18] 0
interdiction[sink_26,sink_4] 0
interdiction[sink_4,sink_20] 1
interdiction[sink_18,sink_6] 0
interdiction[sink_25,innode_8] 0
interdiction[sink_6,sink_7] 0
interdiction[sink_6,sink_22] 0
interdiction[sink_7,sink_24] 0
interdiction[sink_22,sink_1] 0
interdiction[sink_24,sink_21] 0
interdiction[sink_21,sink_12] 0
interdiction[sink_7,sink_5] 0
interdiction[sink_5,sink_17] 0
interdiction[sink_17,sink_4] 0
interdiction[sink_17,sink_8] 0
interdiction[sink_3,sink_23] 0
interdiction[sink_8,sink_20] 0
interdiction[sink_25,sink_20] 0
interdiction[sink_25,sink_15] 0
interdiction[sink_15,sink_29] 1
interdiction[sink_29,sink_28] 0
interdiction[sink_29,sink_2] 0
interdiction[sink_2,sink_15] 0
interdiction[sink_29,innode_7] 0
interdiction[innode_4,sink_19] 0
interdiction[sink_19,innode_3] 0
interdiction[innode_4,innode_5] 0
interdiction[sink_27,innode_5] 0
interdiction[sink_27,sink_19] 0
interdiction[sink_10,sink_11] 0
interdiction[sink_10,innode_2] 0
interdiction[sink_10,innode_3] 0
interdiction[innode_6,sink_25] 0
interdiction[sink_11,innode_1] 0
interdiction[sink_19,innode_2] 0
interdiction[source_3,innode_4] 0
interdiction[source_2,innode_7] 0
interdiction[sink_3,innode_8] 0
WCcheckFlow[source_1,sink_3] 39
WCcheckFlow[innode_1,sink_16] 1
WCcheckFlow[innode_6,sink_13] 13
WCcheckFlow[sink_13,sink_14] 12
WCcheckFlow[sink_14,sink_10] 11
WCcheckFlow[sink_25,sink_26] 0
WCcheckFlow[sink_26,sink_9] -2
WCcheckFlow[sink_9,sink_18] -3
WCcheckFlow[sink_26,sink_4] 1
WCcheckFlow[sink_4,sink_20] 0
WCcheckFlow[sink_18,sink_6] -4
WCcheckFlow[sink_25,innode_8] -36
WCcheckFlow[sink_6,sink_7] -7
WCcheckFlow[sink_6,sink_22] 2
WCcheckFlow[sink_7,sink_24] 3
WCcheckFlow[sink_22,sink_1] 1
WCcheckFlow[sink_24,sink_21] 2
WCcheckFlow[sink_21,sink_12] 1
WCcheckFlow[sink_7,sink_5] -11
WCcheckFlow[sink_5,sink_17] -12
WCcheckFlow[sink_17,sink_4] 0
WCcheckFlow[sink_17,sink_8] -13
WCcheckFlow[sink_3,sink_23] 1
WCcheckFlow[sink_8,sink_20] -14
WCcheckFlow[sink_25,sink_20] 15
WCcheckFlow[sink_25,sink_15] 6
WCcheckFlow[sink_15,sink_29] 0
WCcheckFlow[sink_29,sink_28] 1
WCcheckFlow[sink_29,sink_2] -4
WCcheckFlow[sink_2,sink_15] -5
WCcheckFlow[sink_29,innode_7] 2
WCcheckFlow[innode_4,sink_19] -4
WCcheckFlow[sink_19,innode_3] -5
WCcheckFlow[innode_4,innode_5] 2
WCcheckFlow[sink_27,innode_5] -1
WCcheckFlow[sink_27,sink_19] 0
WCcheckFlow[sink_10,sink_11] 3
WCcheckFlow[sink_10,innode_2] 1
WCcheckFlow[sink_10,innode_3] 6
WCcheckFlow[innode_6,sink_25] -14
WCcheckFlow[sink_11,innode_1] 2
WCcheckFlow[sink_19,innode_2] 0
WCcheckFlow[source_3,innode_4] -1
WCcheckFlow[source_2,innode_7] -1
WCcheckFlow[sink_3,innode_8] 37
